n_res = 4;
rc = [ 17, 15, 16, 16 ];
n_tasks = 30;
d = [ 4, 10, 1, 10, 8, 2, 2, 3, 4, 4, 1, 3, 10, 7, 9, 6, 8, 6, 8, 2, 7, 5, 3, 7, 9, 7, 4, 8, 1, 10 ];
rr = [| 17, 17, 17, 17, 17, 17, 17, 17, 17, 17, 17, 17, 17, 17, 17, 17, 17, 17, 17, 17, 17, 17, 17, 17, 17, 17, 17, 17, 17, 17
      | 15, 15, 15, 15, 15, 15, 15, 15, 15, 15, 15, 15, 15, 15, 15, 15, 15, 15, 15, 15, 15, 15, 15, 15, 15, 15, 15, 15, 15, 15
      | 16, 16, 16, 16, 16, 16, 16, 16, 16, 16, 16, 16, 16, 16, 16, 16, 16, 16, 16, 16, 16, 16, 16, 16, 16, 16, 16, 16, 16, 16
      | 16, 16, 16, 16, 16, 16, 16, 16, 16, 16, 16, 16, 16, 16, 16, 16, 16, 16, 16, 16, 16, 16, 16, 16, 16, 16, 16, 16, 16, 16|];
suc = [ { 5, 11, 19 },
       { 4, 15 },
       { 4, 7, 11 },
       { 6, 10, 17 },
       { 6, 15 },
       { 9, 22, 25 },
       { 8, 12, 28 },
       { 14 },
       { 16, 21, 23 },
       { 12, 13, 23 },
       { 12, 20, 23 },
       { 16, 24, 25 },
       { 16, 18, 28 },
       { 15, 17, 18 },
       { 25, 27 },
       { 27, 30 },
       { 19, 20, 30 },
       { 19, 20, 26 },
       { 21, 22 },
       { 21, 22 },
       { 24, 27 },
       { 24 },
       { 26, 28 },
       { 29 },
       { 26, 29 },
       { 30 },
       { 29 },
       {  },
       {  },
       {  } ];
